TaS2 v13xv13xv13 David-star             
1.0
       12.1916027069         0.0000000000         0.0000000000
       -6.0958081370        10.5582007043         0.0000000000
       -0.0000328956        -0.0005600159         6.6767983201
   Ta    S
   13   26
Direct
     0.000016389         0.000075352         0.400008559
     0.216916338         0.929220796         0.400475919
     0.929164588         0.712325752         0.399525046
     0.712272882         0.783181906         0.400490403
     0.783125103         0.070920765         0.399501264
     0.070871048         0.287825763         0.400494158
     0.287768453         0.216975719         0.399515092
     0.151751280         0.635491490         0.399555862
     0.635424137         0.483766466         0.400465608
     0.483707845         0.848365366         0.399526834
     0.848297536         0.364669979         0.400442362
     0.364609510         0.516397119         0.399584174
     0.516336143         0.151817337         0.400425017
     0.174547136         0.050493103         0.647219658
     0.407170445         0.972195625         0.616374612
     0.101426430         0.748654902         0.642321765
     0.875915587         0.825577974         0.647244394
     0.949618518         0.124196216         0.647232294
     0.251456916         0.352919012         0.642328799
     0.485744059         0.287216276         0.618009448
     0.333364248         0.666766107         0.617951035
     0.801432848         0.514363170         0.618006468
     0.647187054         0.898693323         0.642310739
     0.027926100         0.435126394         0.616403043
     0.564989984         0.592963994         0.616415024
     0.712897062         0.198679909         0.617970705
     0.124117635         0.174578771         0.152777657
     0.352838814         0.101461887         0.157665536
     0.050408274         0.875948608         0.152774319
     0.825507164         0.949655473         0.152758703
     0.898614466         0.251497597         0.157678291
     0.198608905         0.485789925         0.182017192
     0.435051978         0.407210559         0.183616683
     0.287140608         0.801471710         0.181980595
     0.748573363         0.647227883         0.157684430
     0.592885137         0.027978171         0.183583364
     0.972111881         0.565031886         0.183610126
     0.514290988         0.712936521         0.182003424
     0.666682303         0.333408058         0.182050571
